# Solution for model Food_Bank
# Objective value = 1.7371886097871633e+04
x_1_1 1
x_1_2 0
x_1_3 1
x_1_4 1
x_1_5 0
x_1_6 1
x_1_7 1
x_1_8 1
x_1_9 1
x_1_10 0
x_1_11 1
x_1_12 1
x_1_13 0
x_1_14 0
x_1_15 1
x_1_16 1
x_1_17 0
x_1_18 1
x_1_19 0
x_1_20 0
y_1_1 0
y_1_2 0
y_1_3 1
y_1_4 0
y_1_5 0
y_2_1 0
y_2_2 0
y_2_3 0
y_2_4 0
y_2_5 0
y_3_1 0
y_3_2 1
y_3_3 0
y_3_4 0
y_3_5 0
y_4_1 1
y_4_2 0
y_4_3 0
y_4_4 0
y_4_5 0
y_5_1 0
y_5_2 0
y_5_3 0
y_5_4 0
y_5_5 0
y_6_1 1
y_6_2 0
y_6_3 0
y_6_4 0
y_6_5 0
y_7_1 0
y_7_2 0
y_7_3 0
y_7_4 0
y_7_5 0
y_8_1 0
y_8_2 1
y_8_3 0
y_8_4 0
y_8_5 0
y_9_1 0
y_9_2 0
y_9_3 0
y_9_4 1
y_9_5 0
y_10_1 0
y_10_2 0
y_10_3 0
y_10_4 0
y_10_5 0
y_11_1 0
y_11_2 0
y_11_3 0
y_11_4 0
y_11_5 1
y_12_1 0
y_12_2 0
y_12_3 0
y_12_4 1
y_12_5 0
y_13_1 0
y_13_2 0
y_13_3 0
y_13_4 0
y_13_5 0
y_14_1 0
y_14_2 0
y_14_3 0
y_14_4 0
y_14_5 0
y_15_1 0
y_15_2 0
y_15_3 0
y_15_4 0
y_15_5 1
y_16_1 0
y_16_2 0
y_16_3 1
y_16_4 0
y_16_5 0
y_17_1 0
y_17_2 0
y_17_3 0
y_17_4 0
y_17_5 0
y_18_1 0
y_18_2 0
y_18_3 0
y_18_4 0
y_18_5 0
y_19_1 0
y_19_2 0
y_19_3 0
y_19_4 0
y_19_5 0
y_20_1 0
y_20_2 0
y_20_3 0
y_20_4 0
y_20_5 0
aFP_1_1 2.7799222222222224e+03
aFP_1_2 0
aFP_1_3 3.8544200000063688e+03
aFP_1_4 3217
aFP_1_5 0
aFP_1_6 2.5749188889114671e+03
aFP_1_7 0
aFP_1_8 2546
aFP_1_9 3.6343206250000012e+03
aFP_1_10 0
aFP_1_11 3.5483844444444462e+03
aFP_1_12 1443
aFP_1_13 0
aFP_1_14 0
aFP_1_15 787
aFP_1_16 9524
aFP_1_17 0
aFP_1_18 0
aFP_1_19 0
aFP_1_20 0
aPZ_1_1 0
aPZ_2_1 0
aPZ_3_1 0
aPZ_4_1 9651
aPZ_5_1 0
aPZ_6_1 7.7247566667344017e+03
aPZ_7_1 0
aPZ_8_1 0
aPZ_9_1 0
aPZ_10_1 0
aPZ_11_1 0
aPZ_12_1 0
aPZ_13_1 0
aPZ_14_1 0
aPZ_15_1 0
aPZ_16_1 0
aPZ_17_1 0
aPZ_18_1 0
aPZ_19_1 0
aPZ_20_1 0
aPZ_1_2 0
aPZ_2_2 0
aPZ_3_2 1.5417680000025475e+04
aPZ_4_2 0
aPZ_5_2 0
aPZ_6_2 0
aPZ_7_2 0
aPZ_8_2 10184
aPZ_9_2 0
aPZ_10_2 0
aPZ_11_2 0
aPZ_12_2 0
aPZ_13_2 0
aPZ_14_2 0
aPZ_15_2 0
aPZ_16_2 0
aPZ_17_2 0
aPZ_18_2 0
aPZ_19_2 0
aPZ_20_2 0
aPZ_1_3 8.3397666666666664e+03
aPZ_2_3 0
aPZ_3_3 0
aPZ_4_3 0
aPZ_5_3 0
aPZ_6_3 0
aPZ_7_3 0
aPZ_8_3 0
aPZ_9_3 0
aPZ_10_3 0
aPZ_11_3 0
aPZ_12_3 0
aPZ_13_3 0
aPZ_14_3 0
aPZ_15_3 0
aPZ_16_3 28572
aPZ_17_3 0
aPZ_18_3 0
aPZ_19_3 0
aPZ_20_3 0
aPZ_1_4 0
aPZ_2_4 0
aPZ_3_4 0
aPZ_4_4 0
aPZ_5_4 0
aPZ_6_4 0
aPZ_7_4 0
aPZ_8_4 0
aPZ_9_4 1.4537282500000005e+04
aPZ_10_4 0
aPZ_11_4 0
aPZ_12_4 5772
aPZ_13_4 0
aPZ_14_4 0
aPZ_15_4 0
aPZ_16_4 0
aPZ_17_4 0
aPZ_18_4 0
aPZ_19_4 0
aPZ_20_4 0
aPZ_1_5 0
aPZ_2_5 0
aPZ_3_5 0
aPZ_4_5 0
aPZ_5_5 0
aPZ_6_5 0
aPZ_7_5 0
aPZ_8_5 0
aPZ_9_5 0
aPZ_10_5 0
aPZ_11_5 1.0645153333333339e+04
aPZ_12_5 0
aPZ_13_5 0
aPZ_14_5 0
aPZ_15_5 2361
aPZ_16_5 0
aPZ_17_5 0
aPZ_18_5 0
aPZ_19_5 0
aPZ_20_5 0
nT_1_1 1
nT_1_2 0
nT_1_3 1
nT_1_4 1
nT_1_5 0
nT_1_6 1
nT_1_7 0
nT_1_8 1
nT_1_9 1
nT_1_10 0
nT_1_11 1
nT_1_12 1
nT_1_13 0
nT_1_14 0
nT_1_15 1
nT_1_16 1
nT_1_17 0
nT_1_18 0
nT_1_19 0
nT_1_20 0
ort_1_1 80
ort_1_2 0
ort_1_3 60
ort_1_4 80
ort_1_5 0
ort_1_6 80
ort_1_7 120
ort_1_8 60
ort_1_9 60
ort_1_10 0
ort_1_11 80
ort_1_12 60
ort_1_13 0
ort_1_14 0
ort_1_15 80
ort_1_16 80
ort_1_17 0
ort_1_18 120
ort_1_19 0
ort_1_20 0
opt_1_1 24.4820022939091
opt_1_2 0
opt_1_3 1.4373858580650255e+01
opt_1_4 9.0252129032258068e+00
opt_1_5 0
opt_1_6 2.3027677046613046e+01
opt_1_7 0
opt_1_8 5.2626064516129034e+00
opt_1_9 1.5488101661290322e+01
opt_1_10 0
opt_1_11 1.1225804329749105e+01
opt_1_12 1.4057625806451613e+01
opt_1_13 0
opt_1_14 0
opt_1_15 8.6941161290322579e+00
opt_1_16 1.4070812903225807e+01
opt_1_17 0
opt_1_18 0
opt_1_19 0
opt_1_20 0
tt_1_1 1.36
tt_1_2 0
tt_1_3 0.96
tt_1_4 2
tt_1_5 0
tt_1_6 0.8
tt_1_7 3.6
tt_1_8 1.68
tt_1_9 3.04
tt_1_10 0
tt_1_11 1.76
tt_1_12 0.8
tt_1_13 0
tt_1_14 0
tt_1_15 1.44
tt_1_16 2.64
tt_1_17 0
tt_1_18 2.96
tt_1_19 0
tt_1_20 0
wt_1_1 0
wt_1_2 0
wt_1_3 2.2258064516129032e+01
wt_1_4 0
wt_1_5 0
wt_2_1 0
wt_2_2 0
wt_2_3 0
wt_2_4 0
wt_2_5 0
wt_3_1 0
wt_3_2 1.1290322580645160e+01
wt_3_3 0
wt_3_4 0
wt_3_5 0
wt_4_1 6.4516129032258061e+00
wt_4_2 0
wt_4_3 0
wt_4_4 0
wt_4_5 0
wt_5_1 0
wt_5_2 0
wt_5_3 0
wt_5_4 0
wt_5_5 0
wt_6_1 2.0967741935483872e+01
wt_6_2 0
wt_6_3 0
wt_6_4 0
wt_6_5 0
wt_7_1 0
wt_7_2 0
wt_7_3 0
wt_7_4 0
wt_7_5 0
wt_8_1 0
wt_8_2 3.2258064516129030e+00
wt_8_3 0
wt_8_4 0
wt_8_5 0
wt_9_1 0
wt_9_2 0
wt_9_3 0
wt_9_4 1.2580645161290322e+01
wt_9_5 0
wt_10_1 0
wt_10_2 0
wt_10_3 0
wt_10_4 0
wt_10_5 0
wt_11_1 0
wt_11_2 0
wt_11_3 0
wt_11_4 0
wt_11_5 8.3870967741935480e+00
wt_12_1 0
wt_12_2 0
wt_12_3 0
wt_12_4 1.2903225806451612e+01
wt_12_5 0
wt_13_1 0
wt_13_2 0
wt_13_3 0
wt_13_4 0
wt_13_5 0
wt_14_1 0
wt_14_2 0
wt_14_3 0
wt_14_4 0
wt_14_5 0
wt_15_1 0
wt_15_2 0
wt_15_3 0
wt_15_4 0
wt_15_5 8.0645161290322580e+00
wt_16_1 0
wt_16_2 0
wt_16_3 6.4516129032258061e+00
wt_16_4 0
wt_16_5 0
wt_17_1 0
wt_17_2 0
wt_17_3 0
wt_17_4 0
wt_17_5 0
wt_18_1 0
wt_18_2 0
wt_18_3 0
wt_18_4 0
wt_18_5 0
wt_19_1 0
wt_19_2 0
wt_19_3 0
wt_19_4 0
wt_19_5 0
wt_20_1 0
wt_20_2 0
wt_20_3 0
wt_20_4 0
wt_20_5 0
dt_1_1 0
dt_1_2 0
dt_1_3 2.4482002293906444e+01
dt_1_4 0
dt_1_5 0
dt_2_1 0
dt_2_2 0
dt_2_3 0
dt_2_4 0
dt_2_5 0
dt_3_1 0
dt_3_2 1.4373858580650255e+01
dt_3_3 0
dt_3_4 0
dt_3_5 0
dt_4_1 9.0252129032077484e+00
dt_4_2 0
dt_4_3 0
dt_4_4 0
dt_4_5 0
dt_5_1 0
dt_5_2 0
dt_5_3 0
dt_5_4 0
dt_5_5 0
dt_6_1 2.3027677046613057e+01
dt_6_2 0
dt_6_3 0
dt_6_4 0
dt_6_5 0
dt_7_1 0
dt_7_2 0
dt_7_3 0
dt_7_4 0
dt_7_5 0
dt_8_1 0
dt_8_2 5.2626064516078106e+00
dt_8_3 0
dt_8_4 0
dt_8_5 0
dt_9_1 0
dt_9_2 0
dt_9_3 0
dt_9_4 1.5488101661290322e+01
dt_9_5 0
dt_10_1 0
dt_10_2 0
dt_10_3 0
dt_10_4 0
dt_10_5 0
dt_11_1 0
dt_11_2 0
dt_11_3 0
dt_11_4 0
dt_11_5 1.1225804331878063e+01
dt_12_1 0
dt_12_2 0
dt_12_3 0
dt_12_4 1.4057625806451620e+01
dt_12_5 0
dt_13_1 0
dt_13_2 0
dt_13_3 0
dt_13_4 0
dt_13_5 0
dt_14_1 0
dt_14_2 0
dt_14_3 0
dt_14_4 0
dt_14_5 0
dt_15_1 0
dt_15_2 0
dt_15_3 0
dt_15_4 0
dt_15_5 8.69411612690331
dt_16_1 0
dt_16_2 0
dt_16_3 1.4070812903228479e+01
dt_16_4 0
dt_16_5 0
dt_17_1 0
dt_17_2 0
dt_17_3 0
dt_17_4 0
dt_17_5 0
dt_18_1 0
dt_18_2 0
dt_18_3 0
dt_18_4 0
dt_18_5 0
dt_19_1 0
dt_19_2 0
dt_19_3 0
dt_19_4 0
dt_19_5 0
dt_20_1 0
dt_20_2 0
dt_20_3 0
dt_20_4 0
dt_20_5 0
ut_1_1 2.2239377777777780e+00
ut_1_2 0
ut_1_3 3.0835360000050951e+00
ut_1_4 2.5736000000000003e+00
ut_1_5 0
ut_1_6 2.0599351111291737e+00
ut_1_7 0
ut_1_8 2.0368
ut_1_9 2.9074565000000012e+00
ut_1_10 0
ut_1_11 2.8387075555555570e+00
ut_1_12 1.1544
ut_1_13 0
ut_1_14 0
ut_1_15 0.6296
ut_1_16 7.6192
ut_1_17 0
ut_1_18 0
ut_1_19 0
ut_1_20 0
fFP_1_1 3
fFP_1_2 0
fFP_1_3 4
fFP_1_4 3
fFP_1_5 0
fFP_1_6 3
fFP_1_7 2
fFP_1_8 4
fFP_1_9 4
fFP_1_10 0
fFP_1_11 3
fFP_1_12 4
fFP_1_13 0
fFP_1_14 0
fFP_1_15 3
fFP_1_16 3
fFP_1_17 0
fFP_1_18 2
fFP_1_19 0
fFP_1_20 0
dt_1_1_1 0
dt_1_1_2 0
dt_1_1_3 7.3446006881719327e+01
dt_1_1_4 0
dt_1_1_5 0
dt_1_2_1 0
dt_1_2_2 0
dt_1_2_3 0
dt_1_2_4 0
dt_1_2_5 0
dt_1_3_1 0
dt_1_3_2 5.7495434322601113e+01
dt_1_3_3 0
dt_1_3_4 0
dt_1_3_5 0
dt_1_4_1 2.7075638709623249e+01
dt_1_4_2 0
dt_1_4_3 0
dt_1_4_4 0
dt_1_4_5 0
dt_1_5_1 0
dt_1_5_2 0
dt_1_5_3 0
dt_1_5_4 0
dt_1_5_5 0
dt_1_6_1 6.9083031139839164e+01
dt_1_6_2 0
dt_1_6_3 0
dt_1_6_4 0
dt_1_6_5 0
dt_1_7_1 0
dt_1_7_2 0
dt_1_7_3 0
dt_1_7_4 0
dt_1_7_5 0
dt_1_8_1 0
dt_1_8_2 2.1050425806431349e+01
dt_1_8_3 0
dt_1_8_4 0
dt_1_8_5 0
dt_1_9_1 0
dt_1_9_2 0
dt_1_9_3 0
dt_1_9_4 61.9524066451613
dt_1_9_5 0
dt_1_10_1 0
dt_1_10_2 0
dt_1_10_3 0
dt_1_10_4 0
dt_1_10_5 0
dt_1_11_1 0
dt_1_11_2 0
dt_1_11_3 0
dt_1_11_4 0
dt_1_11_5 3.3677412989247323e+01
dt_1_12_1 0
dt_1_12_2 0
dt_1_12_3 0
dt_1_12_4 5.6230503225806487e+01
dt_1_12_5 0
dt_1_13_1 0
dt_1_13_2 0
dt_1_13_3 0
dt_1_13_4 0
dt_1_13_5 0
dt_1_14_1 0
dt_1_14_2 0
dt_1_14_3 0
dt_1_14_4 0
dt_1_14_5 0
dt_1_15_1 0
dt_1_15_2 0
dt_1_15_3 0
dt_1_15_4 0
dt_1_15_5 2.6082348380709931e+01
dt_1_16_1 0
dt_1_16_2 0
dt_1_16_3 4.2212438709685436e+01
dt_1_16_4 0
dt_1_16_5 0
dt_1_17_1 0
dt_1_17_2 0
dt_1_17_3 0
dt_1_17_4 0
dt_1_17_5 0
dt_1_18_1 0
dt_1_18_2 0
dt_1_18_3 0
dt_1_18_4 0
dt_1_18_5 0
dt_1_19_1 0
dt_1_19_2 0
dt_1_19_3 0
dt_1_19_4 0
dt_1_19_5 0
dt_1_20_1 0
dt_1_20_2 0
dt_1_20_3 0
dt_1_20_4 0
dt_1_20_5 0
